Cost: 1463
0-3-4-8-7-10-11-9-13-12-15-16-19-20-21-23-33-32-26-22-17-64-24-29-31-1-2-0
0-65-45-53-44-43-42-35-34-38-36-37-40-46-62-49-48-51-50-54-0
Cost: 1463
0-3-4-8-7-10-11-9-13-12-15-16-19-20-21-23-33-32-26-22-17-64-24-29-31-1-2-0
0-65-45-53-44-43-42-35-34-38-36-37-40-46-62-49-48-51-50-54-0
Cost: 1463
0-3-4-8-7-10-11-9-13-12-15-16-19-20-21-23-33-32-26-22-17-64-24-29-31-1-2-0
0-65-45-53-44-43-42-35-34-38-36-37-40-46-62-49-48-51-50-54-0
Cost: 1463
0-3-4-8-7-10-11-9-13-12-15-16-19-20-21-23-33-32-26-22-17-64-24-29-31-1-2-0
0-65-45-53-44-43-42-35-34-38-36-37-40-46-62-49-48-51-50-54-0
Cost: 1463
0-3-4-8-7-10-11-9-13-12-15-16-19-20-21-23-33-32-26-22-17-64-24-29-31-1-2-0
0-65-45-53-44-43-42-35-34-38-36-37-40-46-62-49-48-51-50-54-0
Cost: 1463
0-3-4-8-7-10-11-9-13-12-15-16-19-20-21-23-33-32-26-22-17-64-24-29-31-1-2-0
0-65-45-53-44-43-42-35-34-38-36-37-40-46-62-49-48-51-50-54-0
Cost: 1463
0-3-4-8-7-10-11-9-13-12-15-16-19-20-21-23-33-32-26-22-17-64-24-29-31-1-2-0
0-65-45-53-44-43-42-35-34-38-36-37-40-46-62-49-48-51-50-54-0
Cost: 1463
0-3-4-8-7-10-11-9-13-12-15-16-19-20-21-23-33-32-26-22-17-64-24-29-31-1-2-0
0-65-45-53-44-43-42-35-34-38-36-37-40-46-62-49-48-51-50-54-0
Cost: 1463
0-3-4-8-7-10-11-9-13-12-15-16-19-20-21-23-33-32-26-22-17-64-24-29-31-1-2-0
0-65-45-53-44-43-42-35-34-38-36-37-40-46-62-49-48-51-50-54-0
Cost: 1463
0-3-4-8-7-10-11-9-13-12-15-16-19-20-21-23-33-32-26-22-17-64-24-29-31-1-2-0
0-65-45-53-44-43-42-35-34-38-36-37-40-46-62-49-48-51-50-54-0
Cost: 1463
0-65-45-53-44-43-42-35-34-37-38-36-63-40-46-62-49-48-51-50-54-0
0-3-4-8-7-10-11-9-14-12-15-16-19-20-21-22-23-33-32-26-17-24-29-30-1-2-0
Cost: 1463
0-65-45-53-44-43-42-35-34-37-38-36-63-40-46-62-49-48-51-50-54-0
0-3-4-8-7-10-11-9-14-12-15-16-19-20-21-22-23-33-32-26-17-24-29-30-1-2-0
Cost: 1463
0-65-45-53-44-43-42-35-34-37-38-36-63-40-46-62-49-48-51-50-54-0
0-3-4-8-7-10-11-9-14-12-15-16-19-20-21-22-23-33-32-26-17-24-29-30-1-2-0
Cost: 1463
0-65-45-53-44-43-42-35-34-37-38-36-63-40-46-62-49-48-51-50-54-0
0-3-4-8-7-10-11-9-14-12-15-16-19-20-21-22-23-33-32-26-17-24-29-30-1-2-0
Cost: 1463
0-65-45-53-44-43-42-35-34-37-38-36-63-40-46-62-49-48-51-50-54-0
0-3-4-8-7-10-11-9-14-12-15-16-19-20-21-22-23-33-32-26-17-24-29-30-1-2-0
Cost: 1463
0-65-45-53-44-43-42-35-34-37-38-36-63-40-46-62-49-48-51-50-54-0
0-3-4-8-7-10-11-9-14-12-15-16-19-20-21-22-23-33-32-26-17-24-29-30-1-2-0
Cost: 1463
0-65-45-53-44-43-42-35-34-37-38-36-63-40-46-62-49-48-51-50-54-0
0-3-4-8-7-10-11-9-14-12-15-16-19-20-21-22-23-33-32-26-17-24-29-30-1-2-0
Cost: 1463
0-65-45-53-44-43-42-35-34-37-38-36-63-40-46-62-49-48-51-50-54-0
0-3-4-8-7-10-11-9-14-12-15-16-19-20-21-22-23-33-32-26-17-24-29-30-1-2-0
Cost: 1463
0-65-45-53-44-43-42-35-34-37-38-36-63-40-46-62-49-48-51-50-54-0
0-3-4-8-7-10-11-9-14-12-15-16-19-20-21-22-23-33-32-26-17-24-29-30-1-2-0
Cost: 1463
0-65-45-53-44-43-42-35-34-37-38-36-63-40-46-62-49-48-51-50-54-0
0-3-4-8-7-10-11-9-14-12-15-16-19-20-21-22-23-33-32-26-17-24-29-30-1-2-0
Cost: 1463
0-65-45-53-44-43-42-35-34-37-38-36-63-40-46-62-49-48-51-50-54-0
0-3-4-8-7-10-11-9-14-12-15-16-19-20-21-22-23-33-32-26-17-24-29-30-1-2-0
Cost: 1463
0-65-45-53-44-43-42-35-34-37-38-36-63-40-46-62-49-48-51-50-54-0
0-3-4-8-7-10-11-9-14-12-15-16-19-20-21-22-23-33-32-26-17-24-29-30-1-2-0
Cost: 1463
0-65-45-53-44-43-42-35-34-37-38-36-63-40-46-62-49-48-51-50-54-0
0-3-4-8-7-10-11-9-14-12-15-16-19-20-21-22-23-33-32-26-17-24-29-30-1-2-0
Cost: 1463
0-65-45-53-44-43-42-35-34-37-38-36-63-40-46-62-49-48-51-50-54-0
0-3-4-8-7-10-11-9-14-12-15-16-19-20-21-22-23-33-32-26-17-24-29-30-1-2-0
Cost: 1463
0-3-8-7-10-11-9-14-12-15-16-19-20-21-22-23-33-32-26-17-64-24-29-30-65-1-2-0
0-5-70-44-45-53-43-42-35-34-36-37-38-40-46-49-48-51-50-54-0
Cost: 1463
0-65-45-53-44-43-42-35-34-37-38-36-63-40-46-62-49-48-51-50-54-0
0-3-4-8-7-10-11-9-14-12-15-16-19-20-21-22-23-33-32-26-17-24-29-30-1-2-0
Cost: 1463
0-65-45-53-44-43-42-35-34-37-38-36-63-40-46-62-49-48-51-50-54-0
0-3-4-8-7-10-11-9-14-12-15-16-19-20-21-22-23-33-32-26-17-24-29-30-1-2-0
Cost: 1463
0-65-45-53-44-43-42-35-34-37-38-36-63-40-46-62-49-48-51-50-54-0
0-3-4-8-7-10-11-9-14-12-15-16-19-20-21-22-23-33-32-26-17-24-29-30-1-2-0
Cost: 1463
0-65-45-53-44-43-42-35-34-37-38-36-63-40-46-62-49-48-51-50-54-0
0-3-4-8-7-10-11-9-14-12-15-16-19-20-21-22-23-33-32-26-17-24-29-30-1-2-0
Cost: 1463
0-4-70-44-45-53-43-42-35-34-36-37-38-40-46-62-49-48-51-50-54-0
0-3-8-7-10-11-9-13-12-15-16-19-20-21-22-23-33-32-26-17-64-24-29-30-1-2-0
Cost: 1463
0-3-5-70-65-45-53-44-43-42-35-34-36-37-38-40-46-49-48-51-50-54-0
0-8-7-10-11-9-14-12-15-16-19-20-21-22-23-33-32-26-17-64-24-29-31-1-2-0
Cost: 1463
0-8-7-10-11-9-13-12-15-16-19-20-21-23-33-32-26-22-17-64-24-29-31-1-2-0
0-3-5-65-44-45-53-43-42-35-34-37-38-36-40-46-62-49-48-51-50-54-0
Cost: 1463
0-3-4-8-7-10-11-9-13-12-15-16-19-20-21-22-23-33-32-26-17-24-29-30-1-2-0
0-70-65-45-53-44-43-42-35-34-36-37-38-40-46-62-49-48-51-50-54-0
Cost: 1463
0-5-70-65-44-45-53-43-42-35-34-36-38-37-40-46-49-48-51-50-54-0
0-3-8-7-10-11-9-14-12-15-16-19-20-21-23-33-32-26-22-17-64-24-29-30-1-2-0
